(set-info :source |printed by MathSAT|)
(declare-fun call_Sofar.Sofar () Bool)
(declare-fun call__DRAGON_.ite35 () Int)
(declare-fun call__DRAGON_.ite46 () Int)
(declare-fun call__DRAGON_.ite19 () Int)
(declare-fun call__DRAGON_.ite51 () Int)
(declare-fun call__DRAGON_.ite15 () Int)
(declare-fun call_First.flby () Int)
(declare-fun param_e10 () Bool)
(declare-fun call__DRAGON_.ite17 () Int)
(declare-fun call__DRAGON_.exclusive () Int)
(declare-fun dirty () Int)
(declare-fun call__DRAGON_.ite43 () Int)
(declare-fun call__DRAGON_.ite61 () Int)
(declare-fun exclusive () Int)
(declare-fun call__DRAGON_.ite49 () Int)
(declare-fun call__DRAGON_.shared_dirty () Int)
(declare-fun param_e12 () Bool)
(declare-fun call__DRAGON_.ite () Bool)
(declare-fun call__DRAGON_.ite45 () Int)
(declare-fun shared () Int)
(declare-fun _OK_ () Bool)
(declare-fun call__DRAGON_.ite59 () Int)
(declare-fun call__DRAGON_.ite27 () Int)
(declare-fun call__DRAGON_.ite5 () Int)
(declare-fun call__DRAGON_.ite14 () Int)
(declare-fun call__DRAGON_.g06 () Bool)
(declare-fun param_e03 () Bool)
(declare-fun call__DRAGON_.ite25 () Int)
(declare-fun call__DRAGON_.ite38 () Int)
(declare-fun call__DRAGON_.ite36 () Int)
(declare-fun call__DRAGON_.dirty () Int)
(declare-fun param_e11 () Bool)
(declare-fun call__DRAGON_.ite6 () Int)
(declare-fun call__DRAGON_.ite60 () Int)
(declare-fun param_e06 () Bool)
(declare-fun call__DRAGON_.g08 () Bool)
(declare-fun call__DRAGON_.ite18 () Int)
(declare-fun call__DRAGON_.g02 () Bool)
(declare-fun call__DRAGON_.flby5 () Int)
(declare-fun call__DRAGON_.ite53 () Int)
(declare-fun call__DRAGON_.ite30 () Int)
(declare-fun env () Bool)
(declare-fun call__DRAGON_.ite32 () Int)
(declare-fun erreur () Bool)
(declare-fun call__DRAGON_.ite44 () Int)
(declare-fun call_Sofar.flby () Bool)
(declare-fun call__DRAGON_.ite57 () Int)
(declare-fun call__DRAGON_.ite4 () Int)
(declare-fun call__DRAGON_.ite56 () Int)
(declare-fun call__DRAGON_.ite20 () Int)
(declare-fun call__DRAGON_.ite37 () Int)
(declare-fun call__DRAGON_.ite12 () Int)
(declare-fun call__DRAGON_.ite24 () Int)
(declare-fun call__DRAGON_.invalid () Int)
(declare-fun call__DRAGON_.flby6 () Int)
(declare-fun call__DRAGON_.mem_init () Int)
(declare-fun call__DRAGON_.ite52 () Int)
(declare-fun invalid () Int)
(declare-fun call__DRAGON_.ite10 () Int)
(declare-fun param_e05 () Bool)
(declare-fun param_e01 () Bool)
(declare-fun param_init_invalid () Int)
(declare-fun param_e04 () Bool)
(declare-fun call__DRAGON_.flby () Int)
(declare-fun shared_dirty () Int)
(declare-fun call__DRAGON_.ite41 () Int)
(declare-fun call__DRAGON_.ite55 () Int)
(declare-fun call__DRAGON_.ite22 () Int)
(declare-fun call__DRAGON_.ite3 () Int)
(declare-fun call__DRAGON_.ite40 () Int)
(declare-fun param_e02 () Bool)
(declare-fun call__DRAGON_.ite39 () Int)
(declare-fun param_e08 () Bool)
(declare-fun param_e09 () Bool)
(declare-fun call__DRAGON_.ite29 () Int)
(declare-fun call__DRAGON_.ite2 () Int)
(declare-fun call__DRAGON_.flby3 () Int)
(declare-fun call__DRAGON_.ite21 () Int)
(declare-fun call__DRAGON_.ite47 () Int)
(declare-fun call__DRAGON_.ite13 () Int)
(declare-fun call__DRAGON_.flby2 () Int)
(declare-fun call__DRAGON_.shared () Int)
(declare-fun call__DRAGON_.ite58 () Int)
(declare-fun call__DRAGON_.ite28 () Int)
(declare-fun param_e07 () Bool)
(declare-fun call__DRAGON_.ite16 () Int)
(declare-fun call__DRAGON_.ite34 () Int)
(declare-fun call__DRAGON_.ite33 () Int)
(declare-fun call__DRAGON_.ite8 () Int)
(declare-fun call__DRAGON_.ite42 () Int)
(declare-fun call__DRAGON_.g04 () Bool)
(declare-fun call__DRAGON_.ite31 () Int)
(declare-fun call__DRAGON_.erreur () Bool)
(declare-fun call_First.First () Int)
(declare-fun call_excludes12.excludes () Bool)
(declare-fun call__DRAGON_.ite9 () Int)
(declare-fun call__DRAGON_.ite54 () Int)
(declare-fun call__DRAGON_.ite50 () Int)
(declare-fun call__DRAGON_.ite7 () Int)
(declare-fun call__DRAGON_.ite23 () Int)
(declare-fun call__DRAGON_.g05 () Bool)
(declare-fun call__DRAGON_.ite11 () Int)
(declare-fun call__DRAGON_.ite48 () Int)
(declare-fun call__DRAGON_.flby4 () Int)
(declare-fun call__DRAGON_.ite26 () Int)
(define-fun .def_1789 () Bool (= call_First.flby call_First.First))
(define-fun .def_1787 () Bool (= call_Sofar.flby call_Sofar.Sofar))
(define-fun .def_1596 () Bool (not param_e02))
(define-fun .def_1577 () Bool (not param_e01))
(define-fun .def_1685 () Bool (and .def_1577 .def_1596))
(define-fun .def_1637 () Bool (not param_e03))
(define-fun .def_1686 () Bool (and .def_1637 .def_1685))
(define-fun .def_1653 () Bool (not param_e04))
(define-fun .def_1687 () Bool (and .def_1653 .def_1686))
(define-fun .def_1430 () Bool (not param_e05))
(define-fun .def_1688 () Bool (and .def_1430 .def_1687))
(define-fun .def_1412 () Bool (not param_e06))
(define-fun .def_1689 () Bool (and .def_1412 .def_1688))
(define-fun .def_1447 () Bool (not param_e07))
(define-fun .def_1690 () Bool (and .def_1447 .def_1689))
(define-fun .def_1466 () Bool (not param_e08))
(define-fun .def_1691 () Bool (and .def_1466 .def_1690))
(define-fun .def_1305 () Bool (not param_e09))
(define-fun .def_1692 () Bool (and .def_1305 .def_1691))
(define-fun .def_1311 () Bool (not param_e10))
(define-fun .def_1693 () Bool (and .def_1311 .def_1692))
(define-fun .def_1318 () Bool (not param_e11))
(define-fun .def_1694 () Bool (and .def_1318 .def_1693))
(define-fun .def_1325 () Bool (not param_e12))
(define-fun .def_1772 () Bool (and .def_1325 .def_1694))
(define-fun .def_1761 () Bool (and param_e01 .def_1596))
(define-fun .def_1762 () Bool (and .def_1637 .def_1761))
(define-fun .def_1763 () Bool (and .def_1653 .def_1762))
(define-fun .def_1764 () Bool (and .def_1430 .def_1763))
(define-fun .def_1765 () Bool (and .def_1412 .def_1764))
(define-fun .def_1766 () Bool (and .def_1447 .def_1765))
(define-fun .def_1767 () Bool (and .def_1466 .def_1766))
(define-fun .def_1768 () Bool (and .def_1305 .def_1767))
(define-fun .def_1769 () Bool (and .def_1311 .def_1768))
(define-fun .def_1770 () Bool (and .def_1318 .def_1769))
(define-fun .def_1771 () Bool (and .def_1325 .def_1770))
(define-fun .def_1773 () Bool (or .def_1771 .def_1772))
(define-fun .def_1750 () Bool (and .def_1577 param_e02))
(define-fun .def_1751 () Bool (and .def_1637 .def_1750))
(define-fun .def_1752 () Bool (and .def_1653 .def_1751))
(define-fun .def_1753 () Bool (and .def_1430 .def_1752))
(define-fun .def_1754 () Bool (and .def_1412 .def_1753))
(define-fun .def_1755 () Bool (and .def_1447 .def_1754))
(define-fun .def_1756 () Bool (and .def_1466 .def_1755))
(define-fun .def_1757 () Bool (and .def_1305 .def_1756))
(define-fun .def_1758 () Bool (and .def_1311 .def_1757))
(define-fun .def_1759 () Bool (and .def_1318 .def_1758))
(define-fun .def_1760 () Bool (and .def_1325 .def_1759))
(define-fun .def_1774 () Bool (or .def_1760 .def_1773))
(define-fun .def_1740 () Bool (and param_e03 .def_1685))
(define-fun .def_1741 () Bool (and .def_1653 .def_1740))
(define-fun .def_1742 () Bool (and .def_1430 .def_1741))
(define-fun .def_1743 () Bool (and .def_1412 .def_1742))
(define-fun .def_1744 () Bool (and .def_1447 .def_1743))
(define-fun .def_1745 () Bool (and .def_1466 .def_1744))
(define-fun .def_1746 () Bool (and .def_1305 .def_1745))
(define-fun .def_1747 () Bool (and .def_1311 .def_1746))
(define-fun .def_1748 () Bool (and .def_1318 .def_1747))
(define-fun .def_1749 () Bool (and .def_1325 .def_1748))
(define-fun .def_1775 () Bool (or .def_1749 .def_1774))
(define-fun .def_1731 () Bool (and param_e04 .def_1686))
(define-fun .def_1732 () Bool (and .def_1430 .def_1731))
(define-fun .def_1733 () Bool (and .def_1412 .def_1732))
(define-fun .def_1734 () Bool (and .def_1447 .def_1733))
(define-fun .def_1735 () Bool (and .def_1466 .def_1734))
(define-fun .def_1736 () Bool (and .def_1305 .def_1735))
(define-fun .def_1737 () Bool (and .def_1311 .def_1736))
(define-fun .def_1738 () Bool (and .def_1318 .def_1737))
(define-fun .def_1739 () Bool (and .def_1325 .def_1738))
(define-fun .def_1776 () Bool (or .def_1739 .def_1775))
(define-fun .def_1723 () Bool (and param_e05 .def_1687))
(define-fun .def_1724 () Bool (and .def_1412 .def_1723))
(define-fun .def_1725 () Bool (and .def_1447 .def_1724))
(define-fun .def_1726 () Bool (and .def_1466 .def_1725))
(define-fun .def_1727 () Bool (and .def_1305 .def_1726))
(define-fun .def_1728 () Bool (and .def_1311 .def_1727))
(define-fun .def_1729 () Bool (and .def_1318 .def_1728))
(define-fun .def_1730 () Bool (and .def_1325 .def_1729))
(define-fun .def_1777 () Bool (or .def_1730 .def_1776))
(define-fun .def_1716 () Bool (and param_e06 .def_1688))
(define-fun .def_1717 () Bool (and .def_1447 .def_1716))
(define-fun .def_1718 () Bool (and .def_1466 .def_1717))
(define-fun .def_1719 () Bool (and .def_1305 .def_1718))
(define-fun .def_1720 () Bool (and .def_1311 .def_1719))
(define-fun .def_1721 () Bool (and .def_1318 .def_1720))
(define-fun .def_1722 () Bool (and .def_1325 .def_1721))
(define-fun .def_1778 () Bool (or .def_1722 .def_1777))
(define-fun .def_1710 () Bool (and param_e07 .def_1689))
(define-fun .def_1711 () Bool (and .def_1466 .def_1710))
(define-fun .def_1712 () Bool (and .def_1305 .def_1711))
(define-fun .def_1713 () Bool (and .def_1311 .def_1712))
(define-fun .def_1714 () Bool (and .def_1318 .def_1713))
(define-fun .def_1715 () Bool (and .def_1325 .def_1714))
(define-fun .def_1779 () Bool (or .def_1715 .def_1778))
(define-fun .def_1705 () Bool (and param_e08 .def_1690))
(define-fun .def_1706 () Bool (and .def_1305 .def_1705))
(define-fun .def_1707 () Bool (and .def_1311 .def_1706))
(define-fun .def_1708 () Bool (and .def_1318 .def_1707))
(define-fun .def_1709 () Bool (and .def_1325 .def_1708))
(define-fun .def_1780 () Bool (or .def_1709 .def_1779))
(define-fun .def_1701 () Bool (and param_e09 .def_1691))
(define-fun .def_1702 () Bool (and .def_1311 .def_1701))
(define-fun .def_1703 () Bool (and .def_1318 .def_1702))
(define-fun .def_1704 () Bool (and .def_1325 .def_1703))
(define-fun .def_1781 () Bool (or .def_1704 .def_1780))
(define-fun .def_1698 () Bool (and param_e10 .def_1692))
(define-fun .def_1699 () Bool (and .def_1318 .def_1698))
(define-fun .def_1700 () Bool (and .def_1325 .def_1699))
(define-fun .def_1782 () Bool (or .def_1700 .def_1781))
(define-fun .def_1696 () Bool (and param_e11 .def_1693))
(define-fun .def_1697 () Bool (and .def_1325 .def_1696))
(define-fun .def_1783 () Bool (or .def_1697 .def_1782))
(define-fun .def_1695 () Bool (and param_e12 .def_1694))
(define-fun .def_1784 () Bool (or .def_1695 .def_1783))
(define-fun .def_1785 () Bool (= call_excludes12.excludes .def_1784))
(define-fun .def_1683 () Bool (= call__DRAGON_.mem_init call__DRAGON_.flby))
(define-fun .def_1681 () Bool (= call__DRAGON_.erreur call__DRAGON_.ite))
(define-fun .def_1679 () Bool (= call__DRAGON_.flby6 call__DRAGON_.invalid))
(define-fun .def_1677 () Bool (= call__DRAGON_.flby5 call__DRAGON_.dirty))
(define-fun .def_1675 () Bool (= call__DRAGON_.flby4 call__DRAGON_.shared_dirty))
(define-fun .def_1673 () Bool (= call__DRAGON_.flby3 call__DRAGON_.shared))
(define-fun .def_1670 () Bool (= call__DRAGON_.flby2 call__DRAGON_.exclusive))
(define-fun .def_1665 () Bool (<= 2 call__DRAGON_.exclusive))
(define-fun .def_1667 () Bool (not .def_1665))
(define-fun .def_1668 () Bool (or call__DRAGON_.ite .def_1667))
(define-fun .def_1664 () Bool (not call__DRAGON_.ite))
(define-fun .def_1666 () Bool (or .def_1664 .def_1665))
(define-fun .def_1669 () Bool (and .def_1666 .def_1668))
(define-fun .def_1671 () Bool (and .def_1669 .def_1670))
(define-fun .def_1659 () Bool (= call__DRAGON_.ite29 call__DRAGON_.ite30))
(define-fun .def_1660 () Bool (or param_e04 .def_1659))
(define-fun .def_1656 () Bool (= call__DRAGON_.ite23 call__DRAGON_.ite30))
(define-fun .def_1657 () Bool (or .def_1653 .def_1656))
(define-fun .def_1652 () Bool (= call__DRAGON_.ite43 call__DRAGON_.ite34))
(define-fun .def_1654 () Bool (or .def_1652 .def_1653))
(define-fun .def_1648 () Bool (= call__DRAGON_.ite42 call__DRAGON_.ite43))
(define-fun .def_1650 () Bool (or .def_1648 param_e04))
(define-fun .def_1655 () Bool (and .def_1650 .def_1654))
(define-fun .def_1658 () Bool (and .def_1655 .def_1657))
(define-fun .def_1661 () Bool (and .def_1658 .def_1660))
(define-fun .def_1644 () Bool (= call__DRAGON_.ite8 call__DRAGON_.ite9))
(define-fun .def_1645 () Bool (or param_e03 .def_1644))
(define-fun .def_1641 () Bool (= call__DRAGON_.ite9 call__DRAGON_.ite4))
(define-fun .def_1642 () Bool (or .def_1637 .def_1641))
(define-fun .def_1636 () Bool (= call__DRAGON_.ite44 call__DRAGON_.ite33))
(define-fun .def_1638 () Bool (or .def_1636 .def_1637))
(define-fun .def_1632 () Bool (= call__DRAGON_.ite44 call__DRAGON_.ite43))
(define-fun .def_1634 () Bool (or .def_1632 param_e03))
(define-fun .def_1639 () Bool (and .def_1634 .def_1638))
(define-fun .def_1643 () Bool (and .def_1639 .def_1642))
(define-fun .def_1646 () Bool (and .def_1643 .def_1645))
(define-fun .def_1627 () Bool (= call__DRAGON_.ite31 call__DRAGON_.ite30))
(define-fun .def_1628 () Bool (or param_e02 .def_1627))
(define-fun .def_1623 () Bool (= call__DRAGON_.ite22 call__DRAGON_.ite31))
(define-fun .def_1624 () Bool (or .def_1596 .def_1623))
(define-fun .def_1618 () Bool (= call__DRAGON_.ite20 call__DRAGON_.ite21))
(define-fun .def_1619 () Bool (or param_e02 .def_1618))
(define-fun .def_1615 () Bool (= call__DRAGON_.ite12 call__DRAGON_.ite21))
(define-fun .def_1616 () Bool (or .def_1596 .def_1615))
(define-fun .def_1610 () Bool (= call__DRAGON_.ite10 call__DRAGON_.ite9))
(define-fun .def_1611 () Bool (or param_e02 .def_1610))
(define-fun .def_1606 () Bool (= call__DRAGON_.ite3 call__DRAGON_.ite10))
(define-fun .def_1607 () Bool (or .def_1596 .def_1606))
(define-fun .def_1603 () Bool (= call__DRAGON_.ite59 call__DRAGON_.ite60))
(define-fun .def_1604 () Bool (or param_e02 .def_1603))
(define-fun .def_1600 () Bool (= call__DRAGON_.ite60 call__DRAGON_.ite47))
(define-fun .def_1601 () Bool (or .def_1596 .def_1600))
(define-fun .def_1595 () Bool (= call__DRAGON_.ite32 call__DRAGON_.ite45))
(define-fun .def_1597 () Bool (or .def_1595 .def_1596))
(define-fun .def_1592 () Bool (= call__DRAGON_.ite45 call__DRAGON_.ite44))
(define-fun .def_1594 () Bool (or .def_1592 param_e02))
(define-fun .def_1598 () Bool (and .def_1594 .def_1597))
(define-fun .def_1602 () Bool (and .def_1598 .def_1601))
(define-fun .def_1605 () Bool (and .def_1602 .def_1604))
(define-fun .def_1608 () Bool (and .def_1605 .def_1607))
(define-fun .def_1612 () Bool (and .def_1608 .def_1611))
(define-fun .def_1617 () Bool (and .def_1612 .def_1616))
(define-fun .def_1620 () Bool (and .def_1617 .def_1619))
(define-fun .def_1625 () Bool (and .def_1620 .def_1624))
(define-fun .def_1629 () Bool (and .def_1625 .def_1628))
(define-fun .def_1586 () Bool (= call__DRAGON_.ite11 call__DRAGON_.ite10))
(define-fun .def_1587 () Bool (or param_e01 .def_1586))
(define-fun .def_1582 () Bool (= call__DRAGON_.ite2 call__DRAGON_.ite11))
(define-fun .def_1583 () Bool (or .def_1577 .def_1582))
(define-fun .def_1576 () Bool (= call__DRAGON_.ite61 call__DRAGON_.ite46))
(define-fun .def_1578 () Bool (or .def_1576 .def_1577))
(define-fun .def_1572 () Bool (= call__DRAGON_.ite61 call__DRAGON_.ite60))
(define-fun .def_1574 () Bool (or .def_1572 param_e01))
(define-fun .def_1579 () Bool (and .def_1574 .def_1578))
(define-fun .def_1584 () Bool (and .def_1579 .def_1583))
(define-fun .def_1588 () Bool (and .def_1584 .def_1587))
(define-fun .def_1566 () Bool (= call__DRAGON_.ite55 call__DRAGON_.ite52))
(define-fun .def_1567 () Bool (or .def_1318 .def_1566))
(define-fun .def_1563 () Bool (= call__DRAGON_.ite54 call__DRAGON_.ite55))
(define-fun .def_1564 () Bool (or param_e11 .def_1563))
(define-fun .def_1568 () Bool (and .def_1564 .def_1567))
(define-fun .def_1559 () Bool (= call__DRAGON_.ite56 call__DRAGON_.ite51))
(define-fun .def_1560 () Bool (or .def_1311 .def_1559))
(define-fun .def_1556 () Bool (= call__DRAGON_.ite56 call__DRAGON_.ite55))
(define-fun .def_1557 () Bool (or param_e10 .def_1556))
(define-fun .def_1561 () Bool (and .def_1557 .def_1560))
(define-fun .def_1551 () Bool (= call__DRAGON_.ite57 call__DRAGON_.ite50))
(define-fun .def_1552 () Bool (or .def_1305 .def_1551))
(define-fun .def_1548 () Bool (= call__DRAGON_.ite57 call__DRAGON_.ite56))
(define-fun .def_1549 () Bool (or param_e09 .def_1548))
(define-fun .def_1553 () Bool (and .def_1549 .def_1552))
(define-fun .def_1545 () Bool (= env call_Sofar.Sofar))
(define-fun .def_1542 () Bool (= erreur call__DRAGON_.erreur))
(define-fun .def_1538 () Bool (= invalid call__DRAGON_.invalid))
(define-fun .def_1535 () Bool (= dirty call__DRAGON_.dirty))
(define-fun .def_1532 () Bool (= shared_dirty call__DRAGON_.shared_dirty))
(define-fun .def_1529 () Bool (= shared call__DRAGON_.shared))
(define-fun .def_1526 () Bool (= exclusive call__DRAGON_.exclusive))
(define-fun .def_1515 () Int (* (- 1) call_First.First))
(define-fun .def_1516 () Int (+ invalid .def_1515))
(define-fun .def_1517 () Int (+ dirty .def_1516))
(define-fun .def_1518 () Int (+ shared_dirty .def_1517))
(define-fun .def_1519 () Int (+ shared .def_1518))
(define-fun .def_1520 () Int (+ exclusive .def_1519))
(define-fun .def_1521 () Bool (= .def_1520 0))
(define-fun .def_1498 () Bool (not env))
(define-fun .def_1522 () Bool (or .def_1498 .def_1521))
(define-fun .def_1523 () Bool (= _OK_ .def_1522))
(define-fun .def_1492 () Bool (= call__DRAGON_.ite39 call__DRAGON_.ite40))
(define-fun .def_1493 () Bool (or param_e08 .def_1492))
(define-fun .def_1489 () Bool (= call__DRAGON_.ite37 call__DRAGON_.ite40))
(define-fun .def_1490 () Bool (or .def_1466 .def_1489))
(define-fun .def_1486 () Bool (= call__DRAGON_.ite27 call__DRAGON_.ite28))
(define-fun .def_1487 () Bool (or param_e08 .def_1486))
(define-fun .def_1483 () Bool (= call__DRAGON_.ite25 call__DRAGON_.ite28))
(define-fun .def_1484 () Bool (or .def_1466 .def_1483))
(define-fun .def_1480 () Bool (= call__DRAGON_.ite17 call__DRAGON_.ite18))
(define-fun .def_1481 () Bool (or param_e08 .def_1480))
(define-fun .def_1477 () Bool (= call__DRAGON_.ite18 call__DRAGON_.ite15))
(define-fun .def_1478 () Bool (or .def_1466 .def_1477))
(define-fun .def_1473 () Bool (= call__DRAGON_.ite7 call__DRAGON_.ite8))
(define-fun .def_1474 () Bool (or param_e08 .def_1473))
(define-fun .def_1470 () Bool (= call__DRAGON_.ite5 call__DRAGON_.ite8))
(define-fun .def_1471 () Bool (or .def_1466 .def_1470))
(define-fun .def_1465 () Bool (= call__DRAGON_.ite58 call__DRAGON_.ite49))
(define-fun .def_1467 () Bool (or .def_1465 .def_1466))
(define-fun .def_1461 () Bool (= call__DRAGON_.ite58 call__DRAGON_.ite57))
(define-fun .def_1463 () Bool (or .def_1461 param_e08))
(define-fun .def_1468 () Bool (and .def_1463 .def_1467))
(define-fun .def_1472 () Bool (and .def_1468 .def_1471))
(define-fun .def_1475 () Bool (and .def_1472 .def_1474))
(define-fun .def_1479 () Bool (and .def_1475 .def_1478))
(define-fun .def_1482 () Bool (and .def_1479 .def_1481))
(define-fun .def_1485 () Bool (and .def_1482 .def_1484))
(define-fun .def_1488 () Bool (and .def_1485 .def_1487))
(define-fun .def_1491 () Bool (and .def_1488 .def_1490))
(define-fun .def_1494 () Bool (and .def_1491 .def_1493))
(define-fun .def_1456 () Bool (= call__DRAGON_.ite59 call__DRAGON_.ite58))
(define-fun .def_1457 () Bool (or param_e07 .def_1456))
(define-fun .def_1452 () Bool (= call__DRAGON_.ite48 call__DRAGON_.ite59))
(define-fun .def_1453 () Bool (or .def_1447 .def_1452))
(define-fun .def_1446 () Bool (= call__DRAGON_.ite41 call__DRAGON_.ite36))
(define-fun .def_1448 () Bool (or .def_1446 .def_1447))
(define-fun .def_1442 () Bool (= call__DRAGON_.ite41 call__DRAGON_.ite40))
(define-fun .def_1444 () Bool (or .def_1442 param_e07))
(define-fun .def_1449 () Bool (and .def_1444 .def_1448))
(define-fun .def_1454 () Bool (and .def_1449 .def_1453))
(define-fun .def_1458 () Bool (and .def_1454 .def_1457))
(define-fun .def_1437 () Bool (= call__DRAGON_.ite19 call__DRAGON_.ite20))
(define-fun .def_1438 () Bool (or param_e05 .def_1437))
(define-fun .def_1434 () Bool (= call__DRAGON_.ite13 call__DRAGON_.ite20))
(define-fun .def_1435 () Bool (or .def_1430 .def_1434))
(define-fun .def_1429 () Bool (= call__DRAGON_.ite42 call__DRAGON_.ite35))
(define-fun .def_1431 () Bool (or .def_1429 .def_1430))
(define-fun .def_1425 () Bool (= call__DRAGON_.ite41 call__DRAGON_.ite42))
(define-fun .def_1427 () Bool (or .def_1425 param_e05))
(define-fun .def_1432 () Bool (and .def_1427 .def_1431))
(define-fun .def_1436 () Bool (and .def_1432 .def_1435))
(define-fun .def_1439 () Bool (and .def_1436 .def_1438))
(define-fun .def_1420 () Bool (= call__DRAGON_.ite29 call__DRAGON_.ite28))
(define-fun .def_1421 () Bool (or param_e06 .def_1420))
(define-fun .def_1416 () Bool (= call__DRAGON_.ite24 call__DRAGON_.ite29))
(define-fun .def_1417 () Bool (or .def_1412 .def_1416))
(define-fun .def_1411 () Bool (= call__DRAGON_.ite19 call__DRAGON_.ite14))
(define-fun .def_1413 () Bool (or .def_1411 .def_1412))
(define-fun .def_1407 () Bool (= call__DRAGON_.ite19 call__DRAGON_.ite18))
(define-fun .def_1409 () Bool (or .def_1407 param_e06))
(define-fun .def_1414 () Bool (and .def_1409 .def_1413))
(define-fun .def_1418 () Bool (and .def_1414 .def_1417))
(define-fun .def_1422 () Bool (and .def_1418 .def_1421))
(define-fun .def_1440 () Bool (and .def_1422 .def_1439))
(define-fun .def_1459 () Bool (and .def_1440 .def_1458))
(define-fun .def_1495 () Bool (and .def_1459 .def_1494))
(define-fun .def_1524 () Bool (and .def_1495 .def_1523))
(define-fun .def_1527 () Bool (and .def_1524 .def_1526))
(define-fun .def_1530 () Bool (and .def_1527 .def_1529))
(define-fun .def_1533 () Bool (and .def_1530 .def_1532))
(define-fun .def_1536 () Bool (and .def_1533 .def_1535))
(define-fun .def_1539 () Bool (and .def_1536 .def_1538))
(define-fun .def_1543 () Bool (and .def_1539 .def_1542))
(define-fun .def_1546 () Bool (and .def_1543 .def_1545))
(define-fun .def_1554 () Bool (and .def_1546 .def_1553))
(define-fun .def_1562 () Bool (and .def_1554 .def_1561))
(define-fun .def_1569 () Bool (and .def_1562 .def_1568))
(define-fun .def_1589 () Bool (and .def_1569 .def_1588))
(define-fun .def_1630 () Bool (and .def_1589 .def_1629))
(define-fun .def_1647 () Bool (and .def_1630 .def_1646))
(define-fun .def_1662 () Bool (and .def_1647 .def_1661))
(define-fun .def_1672 () Bool (and .def_1662 .def_1671))
(define-fun .def_1674 () Bool (and .def_1672 .def_1673))
(define-fun .def_1676 () Bool (and .def_1674 .def_1675))
(define-fun .def_1678 () Bool (and .def_1676 .def_1677))
(define-fun .def_1680 () Bool (and .def_1678 .def_1679))
(define-fun .def_1682 () Bool (and .def_1680 .def_1681))
(define-fun .def_1684 () Bool (and .def_1682 .def_1683))
(define-fun .def_1786 () Bool (and .def_1684 .def_1785))
(define-fun .def_1788 () Bool (and .def_1786 .def_1787))
(define-fun .def_1790 () Bool (and .def_1788 .def_1789))
(define-fun .def_1403 () Bool (= param_init_invalid call_First.flby))
(define-fun .def_1395 () Bool (<= param_init_invalid 0))
(define-fun .def_1396 () Bool (not .def_1395))
(define-fun .def_1398 () Bool (and .def_1396 call_excludes12.excludes))
(define-fun .def_1400 () Bool (= .def_1398 call_Sofar.flby))
(define-fun .def_1393 () Bool (= call__DRAGON_.flby4 0))
(define-fun .def_1390 () Bool (= call__DRAGON_.flby3 0))
(define-fun .def_1387 () Bool (= call__DRAGON_.flby2 0))
(define-fun .def_1384 () Bool (= param_init_invalid call__DRAGON_.flby))
(define-fun .def_1378 () Bool (= call__DRAGON_.ite37 0))
(define-fun .def_1371 () Bool (not call__DRAGON_.g08))
(define-fun .def_1379 () Bool (or .def_1371 .def_1378))
(define-fun .def_1374 () Bool (= call__DRAGON_.ite5 0))
(define-fun .def_1375 () Bool (or .def_1371 .def_1374))
(define-fun .def_1369 () Bool (= call__DRAGON_.ite25 1))
(define-fun .def_1372 () Bool (or .def_1369 .def_1371))
(define-fun .def_1376 () Bool (and .def_1372 .def_1375))
(define-fun .def_1380 () Bool (and .def_1376 .def_1379))
(define-fun .def_1365 () Bool (= call__DRAGON_.ite24 1))
(define-fun .def_1363 () Bool (not call__DRAGON_.g06))
(define-fun .def_1366 () Bool (or .def_1363 .def_1365))
(define-fun .def_1359 () Bool (= call__DRAGON_.ite13 0))
(define-fun .def_1357 () Bool (not call__DRAGON_.g05))
(define-fun .def_1360 () Bool (or .def_1357 .def_1359))
(define-fun .def_1353 () Bool (= call__DRAGON_.ite23 0))
(define-fun .def_1351 () Bool (not call__DRAGON_.g04))
(define-fun .def_1354 () Bool (or .def_1351 .def_1353))
(define-fun .def_1346 () Bool (= call__DRAGON_.ite3 0))
(define-fun .def_1343 () Bool (not call__DRAGON_.g02))
(define-fun .def_1347 () Bool (or .def_1343 .def_1346))
(define-fun .def_1341 () Bool (= call__DRAGON_.ite32 0))
(define-fun .def_1344 () Bool (or .def_1341 .def_1343))
(define-fun .def_1348 () Bool (and .def_1344 .def_1347))
(define-fun .def_1338 () Bool (= call__DRAGON_.flby6 call__DRAGON_.mem_init))
(define-fun .def_1334 () Bool (= call__DRAGON_.flby5 0))
(define-fun .def_1329 () Bool (= call__DRAGON_.ite53 call__DRAGON_.ite54))
(define-fun .def_1330 () Bool (or .def_1325 .def_1329))
(define-fun .def_1323 () Bool (= call__DRAGON_.ite6 call__DRAGON_.ite7))
(define-fun .def_1326 () Bool (or .def_1323 .def_1325))
(define-fun .def_1331 () Bool (and .def_1326 .def_1330))
(define-fun .def_1316 () Bool (= call__DRAGON_.ite26 call__DRAGON_.ite27))
(define-fun .def_1319 () Bool (or .def_1316 .def_1318))
(define-fun .def_1309 () Bool (= call__DRAGON_.ite16 call__DRAGON_.ite17))
(define-fun .def_1312 () Bool (or .def_1309 .def_1311))
(define-fun .def_1303 () Bool (= call__DRAGON_.ite38 call__DRAGON_.ite39))
(define-fun .def_1306 () Bool (or .def_1303 .def_1305))
(define-fun .def_1313 () Bool (and .def_1306 .def_1312))
(define-fun .def_1320 () Bool (and .def_1313 .def_1319))
(define-fun .def_1332 () Bool (and .def_1320 .def_1331))
(define-fun .def_1335 () Bool (and .def_1332 .def_1334))
(define-fun .def_1339 () Bool (and .def_1335 .def_1338))
(define-fun .def_1349 () Bool (and .def_1339 .def_1348))
(define-fun .def_1355 () Bool (and .def_1349 .def_1354))
(define-fun .def_1361 () Bool (and .def_1355 .def_1360))
(define-fun .def_1367 () Bool (and .def_1361 .def_1366))
(define-fun .def_1381 () Bool (and .def_1367 .def_1380))
(define-fun .def_1385 () Bool (and .def_1381 .def_1384))
(define-fun .def_1388 () Bool (and .def_1385 .def_1387))
(define-fun .def_1391 () Bool (and .def_1388 .def_1390))
(define-fun .def_1394 () Bool (and .def_1391 .def_1393))
(define-fun .def_1401 () Bool (and .def_1394 .def_1400))
(define-fun .def_1404 () Bool (and .def_1401 .def_1403))
(define-fun .def_1791 () Bool (and .def_1404 .def_1790))
(assert .def_1791)
